NAME : ClusterId_1036 
COMMENT : (Gillet and Johnson) 
TYPE : CVRP 
DIMENSION : 18 
EDGE_WEIGHT_TYPE : EUC_2D 
CAPACITY : 500 
NODE_COORD_SECTION 
1036 2100 4402 
61 2055 4731 
208 2041 4660 
203 1988 4472 
917 2025 4416 
969 2307 4772 
833 2195 4221 
307 2426 4712 
139 2510 4553 
785 2475 4300 
597 2970 5026 
944 2948 4837 
503 2954 4833 
100 2899 4722 
25 2866 4665 
20 2829 4574 
158 3003 4776 
253 3246 4666 
DEMAND_SECTION 
1036 1462
61 31
208 26
203 39
917 44
969 52
833 36
307 31
139 44
785 39
597 37
944 35
503 37
100 44
25 54
20 53
158 55
253 42
DEPOT_SECTION 
1036
 -1
EOF